problem_generation/data/GISP/train/er_n=66_m=1237_p=0.60_SET2_setparam=100.00_alpha=0.50_406.lp
maximize
OBJ:100x0 + 100x1 + 100x2 + 100x3 + 100x4 + 100x5 + 100x6 + 100x7 + 100x8 + 100x9 + 100x10 + 100x11 + 100x12 + 100x13 + 100x14 + 100x15 + 100x16 + 100x17 + 100x18 + 100x19 + 100x20 + 100x21 + 100x22 + 100x23 + 100x24 + 100x25 + 100x26 + 100x27 + 100x28 + 100x29 + 100x30 + 100x31 + 100x32 + 100x33 + 100x34 + 100x35 + 100x36 + 100x37 + 100x38 + 100x39 + 100x40 + 100x41 + 100x42 + 100x43 + 100x44 + 100x45 + 100x46 + 100x47 + 100x48 + 100x49 + 100x50 + 100x51 + 100x52 + 100x53 + 100x54 + 100x55 + 100x56 + 100x57 + 100x58 + 100x59 + 100x60 + 100x61 + 100x62 + 100x63 + 100x64 + 100x65 - y36_53 - y47_53 - y7_26 - y18_26 - y28_58 - y5_65 - y0_5 - y21_37 - y0_14 - y6_48 - y11_14 - y21_46 - y29_50 - y11_23 - y48_63 - y10_27 - y41_42 - y33_38 - y2_32 - y25_34 - y2_41 - y3_6 - y33_56 - y2_50 - y3_15 - y25_52 - y14_24 - y22_37 - y22_46 - y13_65 - y35_65 - y36_57 - y17_53 - y28_53 - y18_30 - y9_49 - y29_36 - y21_32 - y6_43 - y21_50 - y44_51 - y3_10 - y22_23 - y3_19 - y43_55 - y13_51 - y24_60 - y14_37 - y16_56 - y16_65 - y36_43 - y55_56 - y47_52 - y28_48 - y9_44 - y29_31 - y29_40 - y40_49 - y21_45 - y39_62 - y10_35 - y25_33 - y2_40 - y3_5 - y25_42 - y32_41 - y3_14 - y51_63 - y14_23 - y43_59 - y1_53 - y24_55 - y36_38 - y17_34 - y7_11 - y47_56 - y5_50 - y6_15 - y28_52 - y9_48 - y47_65 - y21_22 - y29_35 - y21_31 - y31_53 - y10_30 - y13_32 - y3_9 - y32_45 - y3_18 - y16_37 - y13_59 - y36_42 - y17_38 - y47_51 - y5_45 - y9_52 - y50_62 - y6_46 - y19_65 - y20_39 - y39_52 - y2_12 - y2_21 - y2_30 - y23_62 - y32_40 - y32_49 - y43_49 - y35_45 - y16_50 - y5_22 - y46_60 - y57_60 - y17_33 - y28_33 - y9_29 - y5_40 - y17_42 - y5_49 - y9_47 - y58_61 - y42_44 - y50_57 - y21_30 - y19_60 - y2_16 - y20_52 - y39_65 - y23_48 - y31_61 - y4_53 - y43_44 - y16_27 - y13_40 - y35_49 - y5_8 - y35_58 - y5_17 - y1_65 - y46_55 - y49_51 - y46_64 - y57_64 - y38_60 - y28_37 - y9_33 - y7_63 - y27_50 - y50_61 - y8_55 - y42_57 - y12_25 - y23_25 - y39_51 - y23_34 - y12_43 - y20_56 - y1_15 - y13_17 - y31_65 - y1_24 - y53_62 - y4_57 - y16_22 - y32_39 - y16_31 - y13_44 - y37_63 - y16_40 - y16_49 - y5_12 - y46_50 - y17_23 - y46_59 - y8_41 - y50_56 - y8_50 - y30_50 - y27_63 - y0_55 - y12_20 - y31_33 - y11_64 - y12_29 - y4_25 - y4_34 - y1_10 - y12_56 - y4_52 - y4_61 - y16_26 - y34_62 - y1_46 - y3_65 - y15_48 - y7_44 - y15_57 - y26_57 - y7_53 - y19_27 - y0_32 - y0_41 - y11_41 - y19_54 - y11_50 - y4_11 - y0_59 - y11_59 - y23_24 - y41_60 - y4_20 - y52_60 - y1_5 - y34_39 - y1_14 - y13_16 - y24_25 - y37_44 - y22_55 - y22_64 - y14_60 - y57_58 - y49_54 - y26_61 - y18_57 - y8_22 - y19_22 - y0_18 - y11_27 - y8_40 - y30_40 - y0_45 - y30_58 - y52_55 - y4_15 - y12_37 - y23_37 - y4_33 - y1_9 - y25_65 - y1_18 - y53_56 - y45_52 - y53_65 - y64_65 - y22_59 - y34_61 - y56_61 - y7_25 - y38_40 - y15_47 - y26_47 - y38_49 - y18_43 - y18_52 - y8_17 - y26_65 - y0_13 - y7_61 - y8_26 - y11_13 - y19_26 - y29_58 - y0_31 - y8_44 - y0_40 - y41_50 - y4_10 - y12_23 - y4_19 - y44_55 - y25_51 - y44_64 - y34_38 - y1_13 - y45_47 - y14_41 - y37_43 - y45_56 - y14_50 - y3_59 - y15_24 - y7_20 - y18_20 - y15_42 - y26_42 - y7_38 - y18_38 - y7_47 - y18_47 - y7_56 - y19_30 - y6_60 - y21_58 - y41_45 - y33_41 - y41_54 - y41_63 - y2_44 - y52_63 - y33_59 - y3_27 - y34_51 - y22_58 - y7_24 - y18_24 - y15_37 - y47_60 - y18_33 - y19_25 - y6_55 - y29_57 - y21_62 - y33_45 - y44_45 - y52_58 - y25_41 - y44_54 - y2_48 - y10_61 - y22_26 - y2_57 - y22_35 - y34_37 - y3_31 - y14_31 - y17_51 - y18_28 - y7_37 - y40_43 - y6_50 - y6_59 - y25_27 - y10_47 - y33_49 - y2_43 - y3_17 - y14_17 - y22_30 - y3_26 - y43_62 - y14_35 - y14_44 - y15_18 - y36_50 - y47_50 - y17_46 - y7_23 - y36_59 - y17_55 - y28_55 - y5_62 - y6_27 - y9_60 - y48_51 - y29_47 - y6_54 - y29_56 - y20_65 - y25_40 - y10_51 - y51_52 - y32_48 - y14_21 - y32_57 - y13_53 - y24_62 - y35_62 - y16_58 - y5_48 - y17_50 - y36_63 - y47_63 - y17_59 - y29_33 - y50_65 - y6_40 - y21_38 - y2_6 - y10_19 - y25_26 - y10_37 - y12_65 - y2_42 - y13_48 - y24_48 - y16_44 - y17_18 - y1_64 - y36_40 - y5_43 - y6_8 - y9_41 - y17_54 - y6_17 - y21_24 - y50_60 - y29_37 - y6_44 - y39_50 - y2_10 - y39_59 - y31_55 - y10_32 - y2_28 - y32_38 - y13_34 - y51_60 - y1_41 - y13_43 - y1_50 - y13_52 - y1_59 - y35_61 - y17_22 - y9_18 - y28_31 - y3_56 - y28_49 - y9_45 - y5_56 - y6_21 - y42_51 - y27_62 - y19_58 - y39_45 - y20_41 - y2_14 - y20_50 - y12_46 - y4_42 - y23_55 - y35_38 - y13_47 - y24_56 - y9_13 - y9_22 - y49_58 - y17_35 - y9_31 - y6_7 - y6_16 - y27_48 - y6_25 - y27_57 - y50_59 - y39_49 - y23_32 - y2_9 - y31_45 - y23_41 - y31_54 - y13_15 - y13_24 - y4_55 - y16_20 - y13_33 - y24_33 - y43_46 - y1_40 - y16_38 - y16_47 - y46_48 - y1_58 - y17_21 - y46_57 - y9_17 - y15_60 - y26_60 - y5_37 - y38_62 - y9_35 - y18_65 - y6_20 - y19_39 - y30_39 - y8_48 - y30_48 - y27_61 - y11_44 - y8_57 - y0_62 - y31_49 - y4_50 - y13_28 - y16_24 - y24_37 - y16_33 - y37_65 - y16_42 - y5_32 - y18_60 - y19_34 - y42_45 - y8_52 - y12_13 - y19_61 - y11_57 - y31_35 - y4_18 - y23_31 - y31_44 - y4_27 - y1_3 - y4_36 - y12_49 - y4_45 - y13_23 - y16_19 - y34_55 - y37_51 - y45_64 - y56_64 - y1_39 - y5_9 - y26_41 - y5_18 - y15_50 - y18_46 - y26_59 - y7_55 - y7_64 - y8_29 - y0_25 - y30_38 - y27_51 - y8_47 - y30_47 - y0_43 - y8_56 - y20_21 - y0_52 - y12_17 - y4_13 - y0_61 - y23_26 - y52_62 - y33_58 - y12_35 - y23_35 - y23_44 - y1_7 - y4_40 - y22_48 - y34_50 - y45_50 - y16_23 - y34_59 - y37_55 - y14_62 - y15_36 - y46_51 - y7_41 - y18_41 - y18_50 - y18_59 - y19_24 - y27_37 - y0_20 - y27_46 - y40_65 - y30_42 - y60_61 - y4_17 - y44_53 - y12_30 - y25_49 - y25_58 - y34_36 - y34_45 - y1_20 - y14_48 - y3_57 - y14_57 - y15_22 - y37_59 - y59_65 - y7_36 - y8_10 - y15_58 - y0_6 - y8_19 - y8_28 - y19_28 - y11_24 - y19_37 - y21_56 - y30_37 - y0_33 - y11_42 - y52_61 - y4_21 - y2_51 - y10_64 - y22_29 - y22_38 - y3_43 - y14_43 - y22_56 - y37_54 - y7_13 - y3_61 - y26_44 - y0_10 - y40_46 - y11_19 - y30_32 - y11_28 - y21_60 - y25_30 - y52_65 - y10_59 - y22_24 - y25_57 - y3_20 - y14_20 - y22_42 - y37_40 - y22_51 - y7_8 - y14_56
 Subject to
C1: x0+x1 <=1 
C2: x0+x2 <=1 
C3: x0+x3 <=1 
C4: x0+x4 <=1 
C5: x0+x5-y0_5 <=1 
C6: x0+x6-y0_6 <=1 
C7: x0+x7 <=1 
C8: x0+x9 <=1 
C9: x0+x10-y0_10 <=1 
C10: x0+x13-y0_13 <=1 
C11: x0+x14-y0_14 <=1 
C12: x0+x18-y0_18 <=1 
C13: x0+x20-y0_20 <=1 
C14: x0+x21 <=1 
C15: x0+x24 <=1 
C16: x0+x25-y0_25 <=1 
C17: x0+x26 <=1 
C18: x0+x31-y0_31 <=1 
C19: x0+x32-y0_32 <=1 
C20: x0+x33-y0_33 <=1 
C21: x0+x34 <=1 
C22: x0+x40-y0_40 <=1 
C23: x0+x41-y0_41 <=1 
C24: x0+x42 <=1 
C25: x0+x43-y0_43 <=1 
C26: x0+x44 <=1 
C27: x0+x45-y0_45 <=1 
C28: x0+x47 <=1 
C29: x0+x48 <=1 
C30: x0+x50 <=1 
C31: x0+x52-y0_52 <=1 
C32: x0+x53 <=1 
C33: x0+x55-y0_55 <=1 
C34: x0+x58 <=1 
C35: x0+x59-y0_59 <=1 
C36: x0+x61-y0_61 <=1 
C37: x0+x62-y0_62 <=1 
C38: x1+x2 <=1 
C39: x1+x3-y1_3 <=1 
C40: x1+x5-y1_5 <=1 
C41: x1+x7-y1_7 <=1 
C42: x1+x9-y1_9 <=1 
C43: x1+x10-y1_10 <=1 
C44: x1+x13-y1_13 <=1 
C45: x1+x14-y1_14 <=1 
C46: x1+x15-y1_15 <=1 
C47: x1+x17 <=1 
C48: x1+x18-y1_18 <=1 
C49: x1+x19 <=1 
C50: x1+x20-y1_20 <=1 
C51: x1+x24-y1_24 <=1 
C52: x1+x26 <=1 
C53: x1+x30 <=1 
C54: x1+x39-y1_39 <=1 
C55: x1+x40-y1_40 <=1 
C56: x1+x41-y1_41 <=1 
C57: x1+x42 <=1 
C58: x1+x45 <=1 
C59: x1+x46-y1_46 <=1 
C60: x1+x50-y1_50 <=1 
C61: x1+x51 <=1 
C62: x1+x52 <=1 
C63: x1+x53-y1_53 <=1 
C64: x1+x55 <=1 
C65: x1+x57 <=1 
C66: x1+x58-y1_58 <=1 
C67: x1+x59-y1_59 <=1 
C68: x1+x62 <=1 
C69: x1+x63 <=1 
C70: x1+x64-y1_64 <=1 
C71: x1+x65-y1_65 <=1 
C72: x2+x4 <=1 
C73: x2+x5 <=1 
C74: x2+x6-y2_6 <=1 
C75: x2+x9-y2_9 <=1 
C76: x2+x10-y2_10 <=1 
C77: x2+x12-y2_12 <=1 
C78: x2+x14-y2_14 <=1 
C79: x2+x16-y2_16 <=1 
C80: x2+x21-y2_21 <=1 
C81: x2+x23 <=1 
C82: x2+x25 <=1 
C83: x2+x26 <=1 
C84: x2+x28-y2_28 <=1 
C85: x2+x29 <=1 
C86: x2+x30-y2_30 <=1 
C87: x2+x32-y2_32 <=1 
C88: x2+x35 <=1 
C89: x2+x38 <=1 
C90: x2+x39 <=1 
C91: x2+x40-y2_40 <=1 
C92: x2+x41-y2_41 <=1 
C93: x2+x42-y2_42 <=1 
C94: x2+x43-y2_43 <=1 
C95: x2+x44-y2_44 <=1 
C96: x2+x47 <=1 
C97: x2+x48-y2_48 <=1 
C98: x2+x49 <=1 
C99: x2+x50-y2_50 <=1 
C100: x2+x51-y2_51 <=1 
C101: x2+x53 <=1 
C102: x2+x57-y2_57 <=1 
C103: x2+x58 <=1 
C104: x2+x62 <=1 
C105: x2+x64 <=1 
C106: x2+x65 <=1 
C107: x3+x4 <=1 
C108: x3+x5-y3_5 <=1 
C109: x3+x6-y3_6 <=1 
C110: x3+x8 <=1 
C111: x3+x9-y3_9 <=1 
C112: x3+x10-y3_10 <=1 
C113: x3+x11 <=1 
C114: x3+x12 <=1 
C115: x3+x14-y3_14 <=1 
C116: x3+x15-y3_15 <=1 
C117: x3+x17-y3_17 <=1 
C118: x3+x18-y3_18 <=1 
C119: x3+x19-y3_19 <=1 
C120: x3+x20-y3_20 <=1 
C121: x3+x22 <=1 
C122: x3+x23 <=1 
C123: x3+x26-y3_26 <=1 
C124: x3+x27-y3_27 <=1 
C125: x3+x31-y3_31 <=1 
C126: x3+x32 <=1 
C127: x3+x33 <=1 
C128: x3+x40 <=1 
C129: x3+x41 <=1 
C130: x3+x42 <=1 
C131: x3+x43-y3_43 <=1 
C132: x3+x53 <=1 
C133: x3+x56-y3_56 <=1 
C134: x3+x57-y3_57 <=1 
C135: x3+x58 <=1 
C136: x3+x59-y3_59 <=1 
C137: x3+x60 <=1 
C138: x3+x61-y3_61 <=1 
C139: x3+x64 <=1 
C140: x3+x65-y3_65 <=1 
C141: x4+x6 <=1 
C142: x4+x9 <=1 
C143: x4+x10-y4_10 <=1 
C144: x4+x11-y4_11 <=1 
C145: x4+x12 <=1 
C146: x4+x13-y4_13 <=1 
C147: x4+x15-y4_15 <=1 
C148: x4+x16 <=1 
C149: x4+x17-y4_17 <=1 
C150: x4+x18-y4_18 <=1 
C151: x4+x19-y4_19 <=1 
C152: x4+x20-y4_20 <=1 
C153: x4+x21-y4_21 <=1 
C154: x4+x24 <=1 
C155: x4+x25-y4_25 <=1 
C156: x4+x26 <=1 
C157: x4+x27-y4_27 <=1 
C158: x4+x28 <=1 
C159: x4+x31 <=1 
C160: x4+x33-y4_33 <=1 
C161: x4+x34-y4_34 <=1 
C162: x4+x36-y4_36 <=1 
C163: x4+x37 <=1 
C164: x4+x38 <=1 
C165: x4+x39 <=1 
C166: x4+x40-y4_40 <=1 
C167: x4+x41 <=1 
C168: x4+x42-y4_42 <=1 
C169: x4+x43 <=1 
C170: x4+x44 <=1 
C171: x4+x45-y4_45 <=1 
C172: x4+x46 <=1 
C173: x4+x48 <=1 
C174: x4+x50-y4_50 <=1 
C175: x4+x52-y4_52 <=1 
C176: x4+x53-y4_53 <=1 
C177: x4+x55-y4_55 <=1 
C178: x4+x56 <=1 
C179: x4+x57-y4_57 <=1 
C180: x4+x61-y4_61 <=1 
C181: x4+x62 <=1 
C182: x4+x63 <=1 
C183: x4+x65 <=1 
C184: x5+x7 <=1 
C185: x5+x8-y5_8 <=1 
C186: x5+x9-y5_9 <=1 
C187: x5+x12-y5_12 <=1 
C188: x5+x14 <=1 
C189: x5+x15 <=1 
C190: x5+x17-y5_17 <=1 
C191: x5+x18-y5_18 <=1 
C192: x5+x20 <=1 
C193: x5+x22-y5_22 <=1 
C194: x5+x28 <=1 
C195: x5+x32-y5_32 <=1 
C196: x5+x37-y5_37 <=1 
C197: x5+x38 <=1 
C198: x5+x39 <=1 
C199: x5+x40-y5_40 <=1 
C200: x5+x41 <=1 
C201: x5+x42 <=1 
C202: x5+x43-y5_43 <=1 
C203: x5+x44 <=1 
C204: x5+x45-y5_45 <=1 
C205: x5+x48-y5_48 <=1 
C206: x5+x49-y5_49 <=1 
C207: x5+x50-y5_50 <=1 
C208: x5+x51 <=1 
C209: x5+x52 <=1 
C210: x5+x53 <=1 
C211: x5+x56-y5_56 <=1 
C212: x5+x58 <=1 
C213: x5+x62-y5_62 <=1 
C214: x5+x64 <=1 
C215: x5+x65-y5_65 <=1 
C216: x6+x7-y6_7 <=1 
C217: x6+x8-y6_8 <=1 
C218: x6+x9 <=1 
C219: x6+x10 <=1 
C220: x6+x15-y6_15 <=1 
C221: x6+x16-y6_16 <=1 
C222: x6+x17-y6_17 <=1 
C223: x6+x20-y6_20 <=1 
C224: x6+x21-y6_21 <=1 
C225: x6+x22 <=1 
C226: x6+x25-y6_25 <=1 
C227: x6+x26 <=1 
C228: x6+x27-y6_27 <=1 
C229: x6+x28 <=1 
C230: x6+x30 <=1 
C231: x6+x31 <=1 
C232: x6+x35 <=1 
C233: x6+x37 <=1 
C234: x6+x39 <=1 
C235: x6+x40-y6_40 <=1 
C236: x6+x41 <=1 
C237: x6+x43-y6_43 <=1 
C238: x6+x44-y6_44 <=1 
C239: x6+x45 <=1 
C240: x6+x46-y6_46 <=1 
C241: x6+x47 <=1 
C242: x6+x48-y6_48 <=1 
C243: x6+x50-y6_50 <=1 
C244: x6+x51 <=1 
C245: x6+x52 <=1 
C246: x6+x53 <=1 
C247: x6+x54-y6_54 <=1 
C248: x6+x55-y6_55 <=1 
C249: x6+x57 <=1 
C250: x6+x58 <=1 
C251: x6+x59-y6_59 <=1 
C252: x6+x60-y6_60 <=1 
C253: x6+x61 <=1 
C254: x6+x62 <=1 
C255: x6+x64 <=1 
C256: x7+x8-y7_8 <=1 
C257: x7+x10 <=1 
C258: x7+x11-y7_11 <=1 
C259: x7+x13-y7_13 <=1 
C260: x7+x15 <=1 
C261: x7+x17 <=1 
C262: x7+x19 <=1 
C263: x7+x20-y7_20 <=1 
C264: x7+x23-y7_23 <=1 
C265: x7+x24-y7_24 <=1 
C266: x7+x25-y7_25 <=1 
C267: x7+x26-y7_26 <=1 
C268: x7+x31 <=1 
C269: x7+x32 <=1 
C270: x7+x33 <=1 
C271: x7+x36-y7_36 <=1 
C272: x7+x37-y7_37 <=1 
C273: x7+x38-y7_38 <=1 
C274: x7+x40 <=1 
C275: x7+x41-y7_41 <=1 
C276: x7+x44-y7_44 <=1 
C277: x7+x47-y7_47 <=1 
C278: x7+x50 <=1 
C279: x7+x52 <=1 
C280: x7+x53-y7_53 <=1 
C281: x7+x55-y7_55 <=1 
C282: x7+x56-y7_56 <=1 
C283: x7+x60 <=1 
C284: x7+x61-y7_61 <=1 
C285: x7+x62 <=1 
C286: x7+x63-y7_63 <=1 
C287: x7+x64-y7_64 <=1 
C288: x8+x10-y8_10 <=1 
C289: x8+x12 <=1 
C290: x8+x13 <=1 
C291: x8+x16 <=1 
C292: x8+x17-y8_17 <=1 
C293: x8+x18 <=1 
C294: x8+x19-y8_19 <=1 
C295: x8+x22-y8_22 <=1 
C296: x8+x23 <=1 
C297: x8+x26-y8_26 <=1 
C298: x8+x27 <=1 
C299: x8+x28-y8_28 <=1 
C300: x8+x29-y8_29 <=1 
C301: x8+x31 <=1 
C302: x8+x33 <=1 
C303: x8+x34 <=1 
C304: x8+x40-y8_40 <=1 
C305: x8+x41-y8_41 <=1 
C306: x8+x42 <=1 
C307: x8+x44-y8_44 <=1 
C308: x8+x47-y8_47 <=1 
C309: x8+x48-y8_48 <=1 
C310: x8+x50-y8_50 <=1 
C311: x8+x51 <=1 
C312: x8+x52-y8_52 <=1 
C313: x8+x55-y8_55 <=1 
C314: x8+x56-y8_56 <=1 
C315: x8+x57-y8_57 <=1 
C316: x8+x62 <=1 
C317: x8+x63 <=1 
C318: x8+x64 <=1 
C319: x9+x11 <=1 
C320: x9+x12 <=1 
C321: x9+x13-y9_13 <=1 
C322: x9+x14 <=1 
C323: x9+x17-y9_17 <=1 
C324: x9+x18-y9_18 <=1 
C325: x9+x22-y9_22 <=1 
C326: x9+x25 <=1 
C327: x9+x28 <=1 
C328: x9+x29-y9_29 <=1 
C329: x9+x31-y9_31 <=1 
C330: x9+x33-y9_33 <=1 
C331: x9+x34 <=1 
C332: x9+x35-y9_35 <=1 
C333: x9+x36 <=1 
C334: x9+x37 <=1 
C335: x9+x38 <=1 
C336: x9+x41-y9_41 <=1 
C337: x9+x43 <=1 
C338: x9+x44-y9_44 <=1 
C339: x9+x45-y9_45 <=1 
C340: x9+x47-y9_47 <=1 
C341: x9+x48-y9_48 <=1 
C342: x9+x49-y9_49 <=1 
C343: x9+x51 <=1 
C344: x9+x52-y9_52 <=1 
C345: x9+x53 <=1 
C346: x9+x54 <=1 
C347: x9+x56 <=1 
C348: x9+x59 <=1 
C349: x9+x60-y9_60 <=1 
C350: x9+x62 <=1 
C351: x9+x64 <=1 
C352: x9+x65 <=1 
C353: x10+x16 <=1 
C354: x10+x19-y10_19 <=1 
C355: x10+x20 <=1 
C356: x10+x22 <=1 
C357: x10+x23 <=1 
C358: x10+x24 <=1 
C359: x10+x26 <=1 
C360: x10+x27-y10_27 <=1 
C361: x10+x28 <=1 
C362: x10+x30-y10_30 <=1 
C363: x10+x32-y10_32 <=1 
C364: x10+x33 <=1 
C365: x10+x35-y10_35 <=1 
C366: x10+x37-y10_37 <=1 
C367: x10+x39 <=1 
C368: x10+x40 <=1 
C369: x10+x42 <=1 
C370: x10+x47-y10_47 <=1 
C371: x10+x50 <=1 
C372: x10+x51-y10_51 <=1 
C373: x10+x52 <=1 
C374: x10+x54 <=1 
C375: x10+x55 <=1 
C376: x10+x59-y10_59 <=1 
C377: x10+x61-y10_61 <=1 
C378: x10+x62 <=1 
C379: x10+x63 <=1 
C380: x10+x64-y10_64 <=1 
C381: x11+x13-y11_13 <=1 
C382: x11+x14-y11_14 <=1 
C383: x11+x17 <=1 
C384: x11+x18 <=1 
C385: x11+x19-y11_19 <=1 
C386: x11+x23-y11_23 <=1 
C387: x11+x24-y11_24 <=1 
C388: x11+x26 <=1 
C389: x11+x27-y11_27 <=1 
C390: x11+x28-y11_28 <=1 
C391: x11+x34 <=1 
C392: x11+x35 <=1 
C393: x11+x37 <=1 
C394: x11+x39 <=1 
C395: x11+x41-y11_41 <=1 
C396: x11+x42-y11_42 <=1 
C397: x11+x43 <=1 
C398: x11+x44-y11_44 <=1 
C399: x11+x48 <=1 
C400: x11+x50-y11_50 <=1 
C401: x11+x52 <=1 
C402: x11+x53 <=1 
C403: x11+x54 <=1 
C404: x11+x56 <=1 
C405: x11+x57-y11_57 <=1 
C406: x11+x58 <=1 
C407: x11+x59-y11_59 <=1 
C408: x11+x62 <=1 
C409: x11+x63 <=1 
C410: x11+x64-y11_64 <=1 
C411: x12+x13-y12_13 <=1 
C412: x12+x16 <=1 
C413: x12+x17-y12_17 <=1 
C414: x12+x20-y12_20 <=1 
C415: x12+x21 <=1 
C416: x12+x23-y12_23 <=1 
C417: x12+x24 <=1 
C418: x12+x25-y12_25 <=1 
C419: x12+x29-y12_29 <=1 
C420: x12+x30-y12_30 <=1 
C421: x12+x32 <=1 
C422: x12+x35-y12_35 <=1 
C423: x12+x37-y12_37 <=1 
C424: x12+x38 <=1 
C425: x12+x43-y12_43 <=1 
C426: x12+x46-y12_46 <=1 
C427: x12+x47 <=1 
C428: x12+x48 <=1 
C429: x12+x49-y12_49 <=1 
C430: x12+x52 <=1 
C431: x12+x53 <=1 
C432: x12+x54 <=1 
C433: x12+x55 <=1 
C434: x12+x56-y12_56 <=1 
C435: x12+x57 <=1 
C436: x12+x58 <=1 
C437: x12+x60 <=1 
C438: x12+x61 <=1 
C439: x12+x65-y12_65 <=1 
C440: x13+x14 <=1 
C441: x13+x15-y13_15 <=1 
C442: x13+x16-y13_16 <=1 
C443: x13+x17-y13_17 <=1 
C444: x13+x20 <=1 
C445: x13+x21 <=1 
C446: x13+x23-y13_23 <=1 
C447: x13+x24-y13_24 <=1 
C448: x13+x25 <=1 
C449: x13+x26 <=1 
C450: x13+x28-y13_28 <=1 
C451: x13+x30 <=1 
C452: x13+x32-y13_32 <=1 
C453: x13+x33-y13_33 <=1 
C454: x13+x34-y13_34 <=1 
C455: x13+x35 <=1 
C456: x13+x38 <=1 
C457: x13+x40-y13_40 <=1 
C458: x13+x41 <=1 
C459: x13+x42 <=1 
C460: x13+x43-y13_43 <=1 
C461: x13+x44-y13_44 <=1 
C462: x13+x46 <=1 
C463: x13+x47-y13_47 <=1 
C464: x13+x48-y13_48 <=1 
C465: x13+x49 <=1 
C466: x13+x50 <=1 
C467: x13+x51-y13_51 <=1 
C468: x13+x52-y13_52 <=1 
C469: x13+x53-y13_53 <=1 
C470: x13+x54 <=1 
C471: x13+x56 <=1 
C472: x13+x58 <=1 
C473: x13+x59-y13_59 <=1 
C474: x13+x62 <=1 
C475: x13+x63 <=1 
C476: x13+x64 <=1 
C477: x13+x65-y13_65 <=1 
C478: x14+x15 <=1 
C479: x14+x17-y14_17 <=1 
C480: x14+x18 <=1 
C481: x14+x20-y14_20 <=1 
C482: x14+x21-y14_21 <=1 
C483: x14+x23-y14_23 <=1 
C484: x14+x24-y14_24 <=1 
C485: x14+x25 <=1 
C486: x14+x31-y14_31 <=1 
C487: x14+x33 <=1 
C488: x14+x35-y14_35 <=1 
C489: x14+x37-y14_37 <=1 
C490: x14+x38 <=1 
C491: x14+x39 <=1 
C492: x14+x40 <=1 
C493: x14+x41-y14_41 <=1 
C494: x14+x42 <=1 
C495: x14+x43-y14_43 <=1 
C496: x14+x44-y14_44 <=1 
C497: x14+x45 <=1 
C498: x14+x47 <=1 
C499: x14+x48-y14_48 <=1 
C500: x14+x50-y14_50 <=1 
C501: x14+x51 <=1 
C502: x14+x52 <=1 
C503: x14+x54 <=1 
C504: x14+x55 <=1 
C505: x14+x56-y14_56 <=1 
C506: x14+x57-y14_57 <=1 
C507: x14+x58 <=1 
C508: x14+x60-y14_60 <=1 
C509: x14+x62-y14_62 <=1 
C510: x14+x63 <=1 
C511: x14+x65 <=1 
C512: x15+x16 <=1 
C513: x15+x17 <=1 
C514: x15+x18-y15_18 <=1 
C515: x15+x22-y15_22 <=1 
C516: x15+x23 <=1 
C517: x15+x24-y15_24 <=1 
C518: x15+x26 <=1 
C519: x15+x27 <=1 
C520: x15+x30 <=1 
C521: x15+x36-y15_36 <=1 
C522: x15+x37-y15_37 <=1 
C523: x15+x39 <=1 
C524: x15+x42-y15_42 <=1 
C525: x15+x44 <=1 
C526: x15+x45 <=1 
C527: x15+x46 <=1 
C528: x15+x47-y15_47 <=1 
C529: x15+x48-y15_48 <=1 
C530: x15+x50-y15_50 <=1 
C531: x15+x51 <=1 
C532: x15+x52 <=1 
C533: x15+x53 <=1 
C534: x15+x54 <=1 
C535: x15+x55 <=1 
C536: x15+x57-y15_57 <=1 
C537: x15+x58-y15_58 <=1 
C538: x15+x59 <=1 
C539: x15+x60-y15_60 <=1 
C540: x15+x65 <=1 
C541: x16+x18 <=1 
C542: x16+x19-y16_19 <=1 
C543: x16+x20-y16_20 <=1 
C544: x16+x22-y16_22 <=1 
C545: x16+x23-y16_23 <=1 
C546: x16+x24-y16_24 <=1 
C547: x16+x26-y16_26 <=1 
C548: x16+x27-y16_27 <=1 
C549: x16+x31-y16_31 <=1 
C550: x16+x33-y16_33 <=1 
C551: x16+x34 <=1 
C552: x16+x36 <=1 
C553: x16+x37-y16_37 <=1 
C554: x16+x38-y16_38 <=1 
C555: x16+x39 <=1 
C556: x16+x40-y16_40 <=1 
C557: x16+x41 <=1 
C558: x16+x42-y16_42 <=1 
C559: x16+x43 <=1 
C560: x16+x44-y16_44 <=1 
C561: x16+x45 <=1 
C562: x16+x47-y16_47 <=1 
C563: x16+x49-y16_49 <=1 
C564: x16+x50-y16_50 <=1 
C565: x16+x51 <=1 
C566: x16+x52 <=1 
C567: x16+x55 <=1 
C568: x16+x56-y16_56 <=1 
C569: x16+x57 <=1 
C570: x16+x58-y16_58 <=1 
C571: x16+x60 <=1 
C572: x16+x61 <=1 
C573: x16+x64 <=1 
C574: x16+x65-y16_65 <=1 
C575: x17+x18-y17_18 <=1 
C576: x17+x21-y17_21 <=1 
C577: x17+x22-y17_22 <=1 
C578: x17+x23-y17_23 <=1 
C579: x17+x24 <=1 
C580: x17+x26 <=1 
C581: x17+x27 <=1 
C582: x17+x29 <=1 
C583: x17+x30 <=1 
C584: x17+x31 <=1 
C585: x17+x33-y17_33 <=1 
C586: x17+x34-y17_34 <=1 
C587: x17+x35-y17_35 <=1 
C588: x17+x36 <=1 
C589: x17+x37 <=1 
C590: x17+x38-y17_38 <=1 
C591: x17+x40 <=1 
C592: x17+x42-y17_42 <=1 
C593: x17+x45 <=1 
C594: x17+x46-y17_46 <=1 
C595: x17+x47 <=1 
C596: x17+x50-y17_50 <=1 
C597: x17+x51-y17_51 <=1 
C598: x17+x52 <=1 
C599: x17+x53-y17_53 <=1 
C600: x17+x54-y17_54 <=1 
C601: x17+x55-y17_55 <=1 
C602: x17+x57 <=1 
C603: x17+x59-y17_59 <=1 
C604: x17+x60 <=1 
C605: x17+x64 <=1 
C606: x18+x19 <=1 
C607: x18+x20-y18_20 <=1 
C608: x18+x21 <=1 
C609: x18+x23 <=1 
C610: x18+x24-y18_24 <=1 
C611: x18+x26-y18_26 <=1 
C612: x18+x27 <=1 
C613: x18+x28-y18_28 <=1 
C614: x18+x29 <=1 
C615: x18+x30-y18_30 <=1 
C616: x18+x33-y18_33 <=1 
C617: x18+x37 <=1 
C618: x18+x38-y18_38 <=1 
C619: x18+x40 <=1 
C620: x18+x41-y18_41 <=1 
C621: x18+x42 <=1 
C622: x18+x43-y18_43 <=1 
C623: x18+x44 <=1 
C624: x18+x46-y18_46 <=1 
C625: x18+x47-y18_47 <=1 
C626: x18+x50-y18_50 <=1 
C627: x18+x52-y18_52 <=1 
C628: x18+x56 <=1 
C629: x18+x57-y18_57 <=1 
C630: x18+x58 <=1 
C631: x18+x59-y18_59 <=1 
C632: x18+x60-y18_60 <=1 
C633: x18+x63 <=1 
C634: x18+x65-y18_65 <=1 
C635: x19+x22-y19_22 <=1 
C636: x19+x23 <=1 
C637: x19+x24-y19_24 <=1 
C638: x19+x25-y19_25 <=1 
C639: x19+x26-y19_26 <=1 
C640: x19+x27-y19_27 <=1 
C641: x19+x28-y19_28 <=1 
C642: x19+x29 <=1 
C643: x19+x30-y19_30 <=1 
C644: x19+x31 <=1 
C645: x19+x34-y19_34 <=1 
C646: x19+x36 <=1 
C647: x19+x37-y19_37 <=1 
C648: x19+x39-y19_39 <=1 
C649: x19+x41 <=1 
C650: x19+x43 <=1 
C651: x19+x45 <=1 
C652: x19+x48 <=1 
C653: x19+x49 <=1 
C654: x19+x54-y19_54 <=1 
C655: x19+x55 <=1 
C656: x19+x58-y19_58 <=1 
C657: x19+x60-y19_60 <=1 
C658: x19+x61-y19_61 <=1 
C659: x19+x63 <=1 
C660: x19+x64 <=1 
C661: x19+x65-y19_65 <=1 
C662: x20+x21-y20_21 <=1 
C663: x20+x22 <=1 
C664: x20+x24 <=1 
C665: x20+x30 <=1 
C666: x20+x31 <=1 
C667: x20+x39-y20_39 <=1 
C668: x20+x40 <=1 
C669: x20+x41-y20_41 <=1 
C670: x20+x44 <=1 
C671: x20+x45 <=1 
C672: x20+x46 <=1 
C673: x20+x49 <=1 
C674: x20+x50-y20_50 <=1 
C675: x20+x52-y20_52 <=1 
C676: x20+x54 <=1 
C677: x20+x55 <=1 
C678: x20+x56-y20_56 <=1 
C679: x20+x58 <=1 
C680: x20+x61 <=1 
C681: x20+x65-y20_65 <=1 
C682: x21+x22-y21_22 <=1 
C683: x21+x24-y21_24 <=1 
C684: x21+x25 <=1 
C685: x21+x26 <=1 
C686: x21+x28 <=1 
C687: x21+x29 <=1 
C688: x21+x30-y21_30 <=1 
C689: x21+x31-y21_31 <=1 
C690: x21+x32-y21_32 <=1 
C691: x21+x33 <=1 
C692: x21+x35 <=1 
C693: x21+x37-y21_37 <=1 
C694: x21+x38-y21_38 <=1 
C695: x21+x40 <=1 
C696: x21+x42 <=1 
C697: x21+x43 <=1 
C698: x21+x44 <=1 
C699: x21+x45-y21_45 <=1 
C700: x21+x46-y21_46 <=1 
C701: x21+x48 <=1 
C702: x21+x49 <=1 
C703: x21+x50-y21_50 <=1 
C704: x21+x51 <=1 
C705: x21+x56-y21_56 <=1 
C706: x21+x57 <=1 
C707: x21+x58-y21_58 <=1 
C708: x21+x60-y21_60 <=1 
C709: x21+x62-y21_62 <=1 
C710: x21+x64 <=1 
C711: x21+x65 <=1 
C712: x22+x23-y22_23 <=1 
C713: x22+x24-y22_24 <=1 
C714: x22+x25 <=1 
C715: x22+x26-y22_26 <=1 
C716: x22+x27 <=1 
C717: x22+x28 <=1 
C718: x22+x29-y22_29 <=1 
C719: x22+x30-y22_30 <=1 
C720: x22+x31 <=1 
C721: x22+x33 <=1 
C722: x22+x35-y22_35 <=1 
C723: x22+x37-y22_37 <=1 
C724: x22+x38-y22_38 <=1 
C725: x22+x39 <=1 
C726: x22+x42-y22_42 <=1 
C727: x22+x44 <=1 
C728: x22+x45 <=1 
C729: x22+x46-y22_46 <=1 
C730: x22+x47 <=1 
C731: x22+x48-y22_48 <=1 
C732: x22+x51-y22_51 <=1 
C733: x22+x53 <=1 
C734: x22+x55-y22_55 <=1 
C735: x22+x56-y22_56 <=1 
C736: x22+x57 <=1 
C737: x22+x58-y22_58 <=1 
C738: x22+x59-y22_59 <=1 
C739: x22+x64-y22_64 <=1 
C740: x22+x65 <=1 
C741: x23+x24-y23_24 <=1 
C742: x23+x25-y23_25 <=1 
C743: x23+x26-y23_26 <=1 
C744: x23+x29 <=1 
C745: x23+x30 <=1 
C746: x23+x31-y23_31 <=1 
C747: x23+x32-y23_32 <=1 
C748: x23+x34-y23_34 <=1 
C749: x23+x35-y23_35 <=1 
C750: x23+x36 <=1 
C751: x23+x37-y23_37 <=1 
C752: x23+x40 <=1 
C753: x23+x41-y23_41 <=1 
C754: x23+x43 <=1 
C755: x23+x44-y23_44 <=1 
C756: x23+x45 <=1 
C757: x23+x47 <=1 
C758: x23+x48-y23_48 <=1 
C759: x23+x50 <=1 
C760: x23+x52 <=1 
C761: x23+x53 <=1 
C762: x23+x55-y23_55 <=1 
C763: x23+x56 <=1 
C764: x23+x58 <=1 
C765: x23+x59 <=1 
C766: x23+x60 <=1 
C767: x23+x62-y23_62 <=1 
C768: x23+x63 <=1 
C769: x24+x25-y24_25 <=1 
C770: x24+x27 <=1 
C771: x24+x30 <=1 
C772: x24+x33-y24_33 <=1 
C773: x24+x34 <=1 
C774: x24+x36 <=1 
C775: x24+x37-y24_37 <=1 
C776: x24+x38 <=1 
C777: x24+x41 <=1 
C778: x24+x42 <=1 
C779: x24+x43 <=1 
C780: x24+x44 <=1 
C781: x24+x46 <=1 
C782: x24+x47 <=1 
C783: x24+x48-y24_48 <=1 
C784: x24+x50 <=1 
C785: x24+x51 <=1 
C786: x24+x53 <=1 
C787: x24+x55-y24_55 <=1 
C788: x24+x56-y24_56 <=1 
C789: x24+x58 <=1 
C790: x24+x59 <=1 
C791: x24+x60-y24_60 <=1 
C792: x24+x61 <=1 
C793: x24+x62-y24_62 <=1 
C794: x25+x26-y25_26 <=1 
C795: x25+x27-y25_27 <=1 
C796: x25+x30-y25_30 <=1 
C797: x25+x31 <=1 
C798: x25+x33-y25_33 <=1 
C799: x25+x34-y25_34 <=1 
C800: x25+x36 <=1 
C801: x25+x38 <=1 
C802: x25+x40-y25_40 <=1 
C803: x25+x41-y25_41 <=1 
C804: x25+x42-y25_42 <=1 
C805: x25+x43 <=1 
C806: x25+x44 <=1 
C807: x25+x49-y25_49 <=1 
C808: x25+x51-y25_51 <=1 
C809: x25+x52-y25_52 <=1 
C810: x25+x55 <=1 
C811: x25+x57-y25_57 <=1 
C812: x25+x58-y25_58 <=1 
C813: x25+x59 <=1 
C814: x25+x60 <=1 
C815: x25+x65-y25_65 <=1 
C816: x26+x27 <=1 
C817: x26+x28 <=1 
C818: x26+x31 <=1 
C819: x26+x35 <=1 
C820: x26+x37 <=1 
C821: x26+x41-y26_41 <=1 
C822: x26+x42-y26_42 <=1 
C823: x26+x43 <=1 
C824: x26+x44-y26_44 <=1 
C825: x26+x47-y26_47 <=1 
C826: x26+x49 <=1 
C827: x26+x50 <=1 
C828: x26+x51 <=1 
C829: x26+x55 <=1 
C830: x26+x56 <=1 
C831: x26+x57-y26_57 <=1 
C832: x26+x58 <=1 
C833: x26+x59-y26_59 <=1 
C834: x26+x60-y26_60 <=1 
C835: x26+x61-y26_61 <=1 
C836: x26+x64 <=1 
C837: x26+x65-y26_65 <=1 
C838: x27+x29 <=1 
C839: x27+x32 <=1 
C840: x27+x35 <=1 
C841: x27+x37-y27_37 <=1 
C842: x27+x38 <=1 
C843: x27+x43 <=1 
C844: x27+x45 <=1 
C845: x27+x46-y27_46 <=1 
C846: x27+x47 <=1 
C847: x27+x48-y27_48 <=1 
C848: x27+x50-y27_50 <=1 
C849: x27+x51-y27_51 <=1 
C850: x27+x55 <=1 
C851: x27+x56 <=1 
C852: x27+x57-y27_57 <=1 
C853: x27+x61-y27_61 <=1 
C854: x27+x62-y27_62 <=1 
C855: x27+x63-y27_63 <=1 
C856: x28+x30 <=1 
C857: x28+x31-y28_31 <=1 
C858: x28+x33-y28_33 <=1 
C859: x28+x37-y28_37 <=1 
C860: x28+x40 <=1 
C861: x28+x42 <=1 
C862: x28+x44 <=1 
C863: x28+x45 <=1 
C864: x28+x48-y28_48 <=1 
C865: x28+x49-y28_49 <=1 
C866: x28+x50 <=1 
C867: x28+x51 <=1 
C868: x28+x52-y28_52 <=1 
C869: x28+x53-y28_53 <=1 
C870: x28+x54 <=1 
C871: x28+x55-y28_55 <=1 
C872: x28+x58-y28_58 <=1 
C873: x28+x60 <=1 
C874: x29+x31-y29_31 <=1 
C875: x29+x32 <=1 
C876: x29+x33-y29_33 <=1 
C877: x29+x34 <=1 
C878: x29+x35-y29_35 <=1 
C879: x29+x36-y29_36 <=1 
C880: x29+x37-y29_37 <=1 
C881: x29+x38 <=1 
C882: x29+x40-y29_40 <=1 
C883: x29+x42 <=1 
C884: x29+x44 <=1 
C885: x29+x46 <=1 
C886: x29+x47-y29_47 <=1 
C887: x29+x50-y29_50 <=1 
C888: x29+x51 <=1 
C889: x29+x52 <=1 
C890: x29+x53 <=1 
C891: x29+x54 <=1 
C892: x29+x55 <=1 
C893: x29+x56-y29_56 <=1 
C894: x29+x57-y29_57 <=1 
C895: x29+x58-y29_58 <=1 
C896: x29+x59 <=1 
C897: x29+x60 <=1 
C898: x29+x61 <=1 
C899: x29+x62 <=1 
C900: x29+x64 <=1 
C901: x29+x65 <=1 
C902: x30+x31 <=1 
C903: x30+x32-y30_32 <=1 
C904: x30+x33 <=1 
C905: x30+x34 <=1 
C906: x30+x35 <=1 
C907: x30+x36 <=1 
C908: x30+x37-y30_37 <=1 
C909: x30+x38-y30_38 <=1 
C910: x30+x39-y30_39 <=1 
C911: x30+x40-y30_40 <=1 
C912: x30+x42-y30_42 <=1 
C913: x30+x47-y30_47 <=1 
C914: x30+x48-y30_48 <=1 
C915: x30+x50-y30_50 <=1 
C916: x30+x51 <=1 
C917: x30+x53 <=1 
C918: x30+x54 <=1 
C919: x30+x58-y30_58 <=1 
C920: x30+x63 <=1 
C921: x30+x65 <=1 
C922: x31+x33-y31_33 <=1 
C923: x31+x34 <=1 
C924: x31+x35-y31_35 <=1 
C925: x31+x40 <=1 
C926: x31+x42 <=1 
C927: x31+x43 <=1 
C928: x31+x44-y31_44 <=1 
C929: x31+x45-y31_45 <=1 
C930: x31+x47 <=1 
C931: x31+x48 <=1 
C932: x31+x49-y31_49 <=1 
C933: x31+x51 <=1 
C934: x31+x53-y31_53 <=1 
C935: x31+x54-y31_54 <=1 
C936: x31+x55-y31_55 <=1 
C937: x31+x59 <=1 
C938: x31+x61-y31_61 <=1 
C939: x31+x65-y31_65 <=1 
C940: x32+x33 <=1 
C941: x32+x38-y32_38 <=1 
C942: x32+x39-y32_39 <=1 
C943: x32+x40-y32_40 <=1 
C944: x32+x41-y32_41 <=1 
C945: x32+x42 <=1 
C946: x32+x43 <=1 
C947: x32+x44 <=1 
C948: x32+x45-y32_45 <=1 
C949: x32+x48-y32_48 <=1 
C950: x32+x49-y32_49 <=1 
C951: x32+x53 <=1 
C952: x32+x55 <=1 
C953: x32+x57-y32_57 <=1 
C954: x32+x58 <=1 
C955: x32+x60 <=1 
C956: x32+x62 <=1 
C957: x32+x63 <=1 
C958: x33+x38-y33_38 <=1 
C959: x33+x41-y33_41 <=1 
C960: x33+x43 <=1 
C961: x33+x44 <=1 
C962: x33+x45-y33_45 <=1 
C963: x33+x47 <=1 
C964: x33+x49-y33_49 <=1 
C965: x33+x50 <=1 
C966: x33+x51 <=1 
C967: x33+x52 <=1 
C968: x33+x54 <=1 
C969: x33+x55 <=1 
C970: x33+x56-y33_56 <=1 
C971: x33+x57 <=1 
C972: x33+x58-y33_58 <=1 
C973: x33+x59-y33_59 <=1 
C974: x33+x60 <=1 
C975: x33+x64 <=1 
C976: x34+x35 <=1 
C977: x34+x36-y34_36 <=1 
C978: x34+x37-y34_37 <=1 
C979: x34+x38-y34_38 <=1 
C980: x34+x39-y34_39 <=1 
C981: x34+x40 <=1 
C982: x34+x42 <=1 
C983: x34+x45-y34_45 <=1 
C984: x34+x46 <=1 
C985: x34+x47 <=1 
C986: x34+x49 <=1 
C987: x34+x50-y34_50 <=1 
C988: x34+x51-y34_51 <=1 
C989: x34+x52 <=1 
C990: x34+x55-y34_55 <=1 
C991: x34+x58 <=1 
C992: x34+x59-y34_59 <=1 
C993: x34+x61-y34_61 <=1 
C994: x34+x62-y34_62 <=1 
C995: x35+x37 <=1 
C996: x35+x38-y35_38 <=1 
C997: x35+x39 <=1 
C998: x35+x40 <=1 
C999: x35+x43 <=1 
C1000: x35+x45-y35_45 <=1 
C1001: x35+x48 <=1 
C1002: x35+x49-y35_49 <=1 
C1003: x35+x50 <=1 
C1004: x35+x51 <=1 
C1005: x35+x52 <=1 
C1006: x35+x55 <=1 
C1007: x35+x57 <=1 
C1008: x35+x58-y35_58 <=1 
C1009: x35+x60 <=1 
C1010: x35+x61-y35_61 <=1 
C1011: x35+x62-y35_62 <=1 
C1012: x35+x64 <=1 
C1013: x35+x65-y35_65 <=1 
C1014: x36+x38-y36_38 <=1 
C1015: x36+x40-y36_40 <=1 
C1016: x36+x42-y36_42 <=1 
C1017: x36+x43-y36_43 <=1 
C1018: x36+x50-y36_50 <=1 
C1019: x36+x51 <=1 
C1020: x36+x53-y36_53 <=1 
C1021: x36+x57-y36_57 <=1 
C1022: x36+x58 <=1 
C1023: x36+x59-y36_59 <=1 
C1024: x36+x61 <=1 
C1025: x36+x63-y36_63 <=1 
C1026: x37+x39 <=1 
C1027: x37+x40-y37_40 <=1 
C1028: x37+x41 <=1 
C1029: x37+x43-y37_43 <=1 
C1030: x37+x44-y37_44 <=1 
C1031: x37+x51-y37_51 <=1 
C1032: x37+x52 <=1 
C1033: x37+x54-y37_54 <=1 
C1034: x37+x55-y37_55 <=1 
C1035: x37+x59-y37_59 <=1 
C1036: x37+x60 <=1 
C1037: x37+x61 <=1 
C1038: x37+x63-y37_63 <=1 
C1039: x37+x65-y37_65 <=1 
C1040: x38+x39 <=1 
C1041: x38+x40-y38_40 <=1 
C1042: x38+x45 <=1 
C1043: x38+x46 <=1 
C1044: x38+x47 <=1 
C1045: x38+x49-y38_49 <=1 
C1046: x38+x52 <=1 
C1047: x38+x53 <=1 
C1048: x38+x58 <=1 
C1049: x38+x59 <=1 
C1050: x38+x60-y38_60 <=1 
C1051: x38+x62-y38_62 <=1 
C1052: x38+x65 <=1 
C1053: x39+x45-y39_45 <=1 
C1054: x39+x46 <=1 
C1055: x39+x48 <=1 
C1056: x39+x49-y39_49 <=1 
C1057: x39+x50-y39_50 <=1 
C1058: x39+x51-y39_51 <=1 
C1059: x39+x52-y39_52 <=1 
C1060: x39+x54 <=1 
C1061: x39+x55 <=1 
C1062: x39+x57 <=1 
C1063: x39+x59-y39_59 <=1 
C1064: x39+x60 <=1 
C1065: x39+x62-y39_62 <=1 
C1066: x39+x65-y39_65 <=1 
C1067: x40+x42 <=1 
C1068: x40+x43-y40_43 <=1 
C1069: x40+x45 <=1 
C1070: x40+x46-y40_46 <=1 
C1071: x40+x47 <=1 
C1072: x40+x48 <=1 
C1073: x40+x49-y40_49 <=1 
C1074: x40+x51 <=1 
C1075: x40+x55 <=1 
C1076: x40+x58 <=1 
C1077: x40+x59 <=1 
C1078: x40+x60 <=1 
C1079: x40+x64 <=1 
C1080: x40+x65-y40_65 <=1 
C1081: x41+x42-y41_42 <=1 
C1082: x41+x45-y41_45 <=1 
C1083: x41+x46 <=1 
C1084: x41+x47 <=1 
C1085: x41+x50-y41_50 <=1 
C1086: x41+x52 <=1 
C1087: x41+x54-y41_54 <=1 
C1088: x41+x56 <=1 
C1089: x41+x57 <=1 
C1090: x41+x60-y41_60 <=1 
C1091: x41+x61 <=1 
C1092: x41+x63-y41_63 <=1 
C1093: x41+x65 <=1 
C1094: x42+x43 <=1 
C1095: x42+x44-y42_44 <=1 
C1096: x42+x45-y42_45 <=1 
C1097: x42+x51-y42_51 <=1 
C1098: x42+x52 <=1 
C1099: x42+x57-y42_57 <=1 
C1100: x42+x58 <=1 
C1101: x42+x60 <=1 
C1102: x42+x64 <=1 
C1103: x43+x44-y43_44 <=1 
C1104: x43+x46-y43_46 <=1 
C1105: x43+x48 <=1 
C1106: x43+x49-y43_49 <=1 
C1107: x43+x50 <=1 
C1108: x43+x55-y43_55 <=1 
C1109: x43+x58 <=1 
C1110: x43+x59-y43_59 <=1 
C1111: x43+x60 <=1 
C1112: x43+x62-y43_62 <=1 
C1113: x43+x63 <=1 
C1114: x43+x64 <=1 
C1115: x43+x65 <=1 
C1116: x44+x45-y44_45 <=1 
C1117: x44+x48 <=1 
C1118: x44+x49 <=1 
C1119: x44+x51-y44_51 <=1 
C1120: x44+x53-y44_53 <=1 
C1121: x44+x54-y44_54 <=1 
C1122: x44+x55-y44_55 <=1 
C1123: x44+x59 <=1 
C1124: x44+x64-y44_64 <=1 
C1125: x45+x46 <=1 
C1126: x45+x47-y45_47 <=1 
C1127: x45+x50-y45_50 <=1 
C1128: x45+x51 <=1 
C1129: x45+x52-y45_52 <=1 
C1130: x45+x54 <=1 
C1131: x45+x55 <=1 
C1132: x45+x56-y45_56 <=1 
C1133: x45+x57 <=1 
C1134: x45+x60 <=1 
C1135: x45+x61 <=1 
C1136: x45+x63 <=1 
C1137: x45+x64-y45_64 <=1 
C1138: x46+x47 <=1 
C1139: x46+x48-y46_48 <=1 
C1140: x46+x50-y46_50 <=1 
C1141: x46+x51-y46_51 <=1 
C1142: x46+x53 <=1 
C1143: x46+x55-y46_55 <=1 
C1144: x46+x56 <=1 
C1145: x46+x57-y46_57 <=1 
C1146: x46+x58 <=1 
C1147: x46+x59-y46_59 <=1 
C1148: x46+x60-y46_60 <=1 
C1149: x46+x63 <=1 
C1150: x46+x64-y46_64 <=1 
C1151: x46+x65 <=1 
C1152: x47+x50-y47_50 <=1 
C1153: x47+x51-y47_51 <=1 
C1154: x47+x52-y47_52 <=1 
C1155: x47+x53-y47_53 <=1 
C1156: x47+x56-y47_56 <=1 
C1157: x47+x60-y47_60 <=1 
C1158: x47+x61 <=1 
C1159: x47+x63-y47_63 <=1 
C1160: x47+x65-y47_65 <=1 
C1161: x48+x50 <=1 
C1162: x48+x51-y48_51 <=1 
C1163: x48+x52 <=1 
C1164: x48+x55 <=1 
C1165: x48+x57 <=1 
C1166: x48+x60 <=1 
C1167: x48+x63-y48_63 <=1 
C1168: x48+x65 <=1 
C1169: x49+x51-y49_51 <=1 
C1170: x49+x52 <=1 
C1171: x49+x54-y49_54 <=1 
C1172: x49+x57 <=1 
C1173: x49+x58-y49_58 <=1 
C1174: x49+x63 <=1 
C1175: x49+x64 <=1 
C1176: x50+x53 <=1 
C1177: x50+x54 <=1 
C1178: x50+x56-y50_56 <=1 
C1179: x50+x57-y50_57 <=1 
C1180: x50+x59-y50_59 <=1 
C1181: x50+x60-y50_60 <=1 
C1182: x50+x61-y50_61 <=1 
C1183: x50+x62-y50_62 <=1 
C1184: x50+x65-y50_65 <=1 
C1185: x51+x52-y51_52 <=1 
C1186: x51+x53 <=1 
C1187: x51+x54 <=1 
C1188: x51+x56 <=1 
C1189: x51+x57 <=1 
C1190: x51+x60-y51_60 <=1 
C1191: x51+x63-y51_63 <=1 
C1192: x51+x64 <=1 
C1193: x51+x65 <=1 
C1194: x52+x54 <=1 
C1195: x52+x55-y52_55 <=1 
C1196: x52+x57 <=1 
C1197: x52+x58-y52_58 <=1 
C1198: x52+x60-y52_60 <=1 
C1199: x52+x61-y52_61 <=1 
C1200: x52+x62-y52_62 <=1 
C1201: x52+x63-y52_63 <=1 
C1202: x52+x64 <=1 
C1203: x52+x65-y52_65 <=1 
C1204: x53+x56-y53_56 <=1 
C1205: x53+x57 <=1 
C1206: x53+x59 <=1 
C1207: x53+x61 <=1 
C1208: x53+x62-y53_62 <=1 
C1209: x53+x65-y53_65 <=1 
C1210: x54+x56 <=1 
C1211: x54+x60 <=1 
C1212: x54+x65 <=1 
C1213: x55+x56-y55_56 <=1 
C1214: x55+x59 <=1 
C1215: x56+x57 <=1 
C1216: x56+x58 <=1 
C1217: x56+x61-y56_61 <=1 
C1218: x56+x64-y56_64 <=1 
C1219: x56+x65 <=1 
C1220: x57+x58-y57_58 <=1 
C1221: x57+x60-y57_60 <=1 
C1222: x57+x63 <=1 
C1223: x57+x64-y57_64 <=1 
C1224: x57+x65 <=1 
C1225: x58+x60 <=1 
C1226: x58+x61-y58_61 <=1 
C1227: x58+x64 <=1 
C1228: x58+x65 <=1 
C1229: x59+x63 <=1 
C1230: x59+x65-y59_65 <=1 
C1231: x60+x61-y60_61 <=1 
C1232: x60+x62 <=1 
C1233: x62+x63 <=1 
C1234: x62+x64 <=1 
C1235: x62+x65 <=1 
C1236: x63+x65 <=1 
C1237: x64+x65-y64_65 <=1 

binary
x0
x1
x2
x3
x4
x5
x6
x7
x8
x9
x10
x11
x12
x13
x14
x15
x16
x17
x18
x19
x20
x21
x22
x23
x24
x25
x26
x27
x28
x29
x30
x31
x32
x33
x34
x35
x36
x37
x38
x39
x40
x41
x42
x43
x44
x45
x46
x47
x48
x49
x50
x51
x52
x53
x54
x55
x56
x57
x58
x59
x60
x61
x62
x63
x64
x65
