problem_generation/data/GISP/train/er_n=66_m=1237_p=0.60_SET2_setparam=100.00_alpha=0.50_406.sol
objective value:                                 1269
x2                                                  1 	(obj:100)
x8                                                  1 	(obj:100)
x11                                                 1 	(obj:100)
x14                                                 1 	(obj:100)
x19                                                 1 	(obj:100)
x21                                                 1 	(obj:100)
x22                                                 1 	(obj:100)
x30                                                 1 	(obj:100)
x32                                                 1 	(obj:100)
x46                                                 1 	(obj:100)
x50                                                 1 	(obj:100)
x59                                                 1 	(obj:100)
x61                                                 1 	(obj:100)
y11_14                                              1 	(obj:-1)
y21_46                                              1 	(obj:-1)
y2_32                                               1 	(obj:-1)
y2_50                                               1 	(obj:-1)
y22_46                                              1 	(obj:-1)
y21_32                                              1 	(obj:-1)
y21_50                                              1 	(obj:-1)
y21_22                                              1 	(obj:-1)
y2_21                                               1 	(obj:-1)
y2_30                                               1 	(obj:-1)
y21_30                                              1 	(obj:-1)
y50_61                                              1 	(obj:-1)
y46_50                                              1 	(obj:-1)
y46_59                                              1 	(obj:-1)
y8_50                                               1 	(obj:-1)
y30_50                                              1 	(obj:-1)
y11_50                                              1 	(obj:-1)
y11_59                                              1 	(obj:-1)
y8_22                                               1 	(obj:-1)
y19_22                                              1 	(obj:-1)
y22_59                                              1 	(obj:-1)
y14_50                                              1 	(obj:-1)
y19_30                                              1 	(obj:-1)
y22_30                                              1 	(obj:-1)
y14_21                                              1 	(obj:-1)
y2_14                                               1 	(obj:-1)
y50_59                                              1 	(obj:-1)
y19_61                                              1 	(obj:-1)
y8_19                                               1 	(obj:-1)
y11_19                                              1 	(obj:-1)
y30_32                                              1 	(obj:-1)
